55 183 148 135 91 24 59 73 25 154 118 56 51 117 12 155 131 170 181 167 19 69 86 68 3 48 27 112 76 31 125 44 53 99 168 192 162 196 33 151 14 95 46 90 173 7 37 63 42 126 54 100 18 158 149 175 67 49 10 142 98 21 58 122 1 145 172 169 94 166 116 96 93 28 111 161 30 143 136 66 165 106 57 83 147 190 41 15 176 64 138 34 185 22 156 171 35 191 4 104 77 133 20 137 134 160 113 195 23 140 164 60 107 129 177 102 84 8 16 180 174 127 119 121 109 45 70 115 199 87 9 32 40 130 80 146 39 26 197 182 71 75 5 78 194 50 62 184 141 79 74 29 188 187 153 65 108 103 110 198 0 186 189 157 114 61 13 124 92 81 38 101 89 52 47 123 82 152 17 193 132 6 36 139 120 97 144 72 179 85 11 105 178 43 150 159 128 88 2 163 

